# Solution for model r10_t27_m1_8 Batch Number: 1
# Finished Task: 26 / 27
# Makespan: 506.0, Total Distance: 268.0, Total Time: 107.0912
# R O S F Batch
0 0 36 0.0 0.0 -1
1 1 10 0.0 0.0 -1
2 2 22 0.0 0.0 -1
3 3 32 0.0 0.0 -1
4 4 14 0.0 0.0 -1
5 5 12 0.0 0.0 -1
6 6 25 0.0 0.0 -1
7 7 15 0.0 0.0 -1
8 8 33 0.0 0.0 -1
9 9 17 0.0 0.0 -1
10 1 29 333.0 362.0 0
11 8 -1 315.0 352.0 0
12 5 19 338.0 363.0 0
13 3 -1 454.0 479.0 0
14 4 34 135.0 168.0 0
15 7 23 391.0 422.0 0
16 -1 -1 -1.0 -1.0 0
17 9 -1 300.0 333.0 0
18 7 -1 473.0 500.0 0
19 5 -1 363.0 390.0 0
20 0 -1 390.0 425.0 0
21 1 -1 454.0 485.0 0
22 2 -1 345.0 366.0 0
23 7 18 422.0 454.0 0
24 8 35 227.0 264.0 0
25 6 -1 374.0 406.0 0
26 3 13 390.0 414.0 0
27 8 24 194.0 215.0 0
28 3 26 346.0 377.0 0
29 1 21 374.0 410.0 0
30 4 -1 485.0 506.0 0
31 0 20 269.0 291.0 0
32 3 28 314.0 336.0 0
33 8 27 157.0 194.0 0
34 4 30 414.0 452.0 0
35 8 11 274.0 296.0 0
36 0 31 238.0 269.0 0
